n_res = 4;
rc = [ 0, 0, 0, 0 ];
n_tasks = 30;
d = [ 6, 4, 9, 5, 10, 10, 1, 1, 7, 2, 7, 6, 1, 10, 9, 4, 6, 10, 2, 5, 4, 7, 6, 4, 10, 4, 4, 3, 10, 8 ];
rr = [| 0, 0, 0, 0, 0, 0, 0, 0, 0, 0, 0, 0, 0, 0, 0, 0, 0, 0, 0, 0, 0, 0, 0, 0, 0, 0, 0, 0, 0, 0
      | 0, 0, 0, 0, 0, 0, 0, 0, 0, 0, 0, 0, 0, 0, 0, 0, 0, 0, 0, 0, 0, 0, 0, 0, 0, 0, 0, 0, 0, 0
      | 0, 0, 0, 0, 0, 0, 0, 0, 0, 0, 0, 0, 0, 0, 0, 0, 0, 0, 0, 0, 0, 0, 0, 0, 0, 0, 0, 0, 0, 0
      | 0, 0, 0, 0, 0, 0, 0, 0, 0, 0, 0, 0, 0, 0, 0, 0, 0, 0, 0, 0, 0, 0, 0, 0, 0, 0, 0, 0, 0, 0 |];
suc = [ { 11, 17, 26 },
       { 5, 9 },
       { 4, 6, 21 },
       { 13, 29 },
       { 7, 18, 23 },
       { 8, 10, 22 },
       { 25 },
       { 12, 19, 30 },
       { 14 },
       { 24 },
       { 20 },
       { 16 },
       { 15, 16 },
       { 22 },
       { 19 },
       { 24 },
       { 23 },
       { 20 },
       { 24 },
       { 21 },
       { 28, 29 },
       { 27 },
       { 25, 30 },
       { 28 },
       { 28 },
       { 30 },
       { 29 },
       {  },
       {  },
       {  } ];
